c description: Tseitin formula on Random 6-regular graph of 8 vertices, with odd charge
c generator: CNFgen (0.9.2)
c copyright: (C) 2012-2022 Massimo Lauria <massimo.lauria@uniroma1.it>
c url: https://massimolauria.net/cnfgen
c command line: cnfgen tseitin 8 6
c
p cnf 24 256
1 2 3 4 5 6 0
1 2 3 4 -5 -6 0
1 2 3 -4 5 -6 0
1 2 3 -4 -5 6 0
1 2 -3 4 5 -6 0
1 2 -3 4 -5 6 0
1 2 -3 -4 5 6 0
1 2 -3 -4 -5 -6 0
1 -2 3 4 5 -6 0
1 -2 3 4 -5 6 0
1 -2 3 -4 5 6 0
1 -2 3 -4 -5 -6 0
1 -2 -3 4 5 6 0
1 -2 -3 4 -5 -6 0
1 -2 -3 -4 5 -6 0
1 -2 -3 -4 -5 6 0
-1 2 3 4 5 -6 0
-1 2 3 4 -5 6 0
-1 2 3 -4 5 6 0
-1 2 3 -4 -5 -6 0
-1 2 -3 4 5 6 0
-1 2 -3 4 -5 -6 0
-1 2 -3 -4 5 -6 0
-1 2 -3 -4 -5 6 0
-1 -2 3 4 5 6 0
-1 -2 3 4 -5 -6 0
-1 -2 3 -4 5 -6 0
-1 -2 3 -4 -5 6 0
-1 -2 -3 4 5 -6 0
-1 -2 -3 4 -5 6 0
-1 -2 -3 -4 5 6 0
-1 -2 -3 -4 -5 -6 0
1 7 8 9 10 11 0
1 7 8 9 -10 -11 0
1 7 8 -9 10 -11 0
1 7 8 -9 -10 11 0
1 7 -8 9 10 -11 0
1 7 -8 9 -10 11 0
1 7 -8 -9 10 11 0
1 7 -8 -9 -10 -11 0
1 -7 8 9 10 -11 0
1 -7 8 9 -10 11 0
1 -7 8 -9 10 11 0
1 -7 8 -9 -10 -11 0
1 -7 -8 9 10 11 0
1 -7 -8 9 -10 -11 0
1 -7 -8 -9 10 -11 0
1 -7 -8 -9 -10 11 0
-1 7 8 9 10 -11 0
-1 7 8 9 -10 11 0
-1 7 8 -9 10 11 0
-1 7 8 -9 -10 -11 0
-1 7 -8 9 10 11 0
-1 7 -8 9 -10 -11 0
-1 7 -8 -9 10 -11 0
-1 7 -8 -9 -10 11 0
-1 -7 8 9 10 11 0
-1 -7 8 9 -10 -11 0
-1 -7 8 -9 10 -11 0
-1 -7 8 -9 -10 11 0
-1 -7 -8 9 10 -11 0
-1 -7 -8 9 -10 11 0
-1 -7 -8 -9 10 11 0
-1 -7 -8 -9 -10 -11 0
7 12 13 14 15 -16 0
7 12 13 14 -15 16 0
7 12 13 -14 15 16 0
7 12 13 -14 -15 -16 0
7 12 -13 14 15 16 0
7 12 -13 14 -15 -16 0
7 12 -13 -14 15 -16 0
7 12 -13 -14 -15 16 0
7 -12 13 14 15 16 0
7 -12 13 14 -15 -16 0
7 -12 13 -14 15 -16 0
7 -12 13 -14 -15 16 0
7 -12 -13 14 15 -16 0
7 -12 -13 14 -15 16 0
7 -12 -13 -14 15 16 0
7 -12 -13 -14 -15 -16 0
-7 12 13 14 15 16 0
-7 12 13 14 -15 -16 0
-7 12 13 -14 15 -16 0
-7 12 13 -14 -15 16 0
-7 12 -13 14 15 -16 0
-7 12 -13 14 -15 16 0
-7 12 -13 -14 15 16 0
-7 12 -13 -14 -15 -16 0
-7 -12 13 14 15 -16 0
-7 -12 13 14 -15 16 0
-7 -12 13 -14 15 16 0
-7 -12 13 -14 -15 -16 0
-7 -12 -13 14 15 16 0
-7 -12 -13 14 -15 -16 0
-7 -12 -13 -14 15 -16 0
-7 -12 -13 -14 -15 16 0
2 8 12 17 18 19 0
2 8 12 17 -18 -19 0
2 8 12 -17 18 -19 0
2 8 12 -17 -18 19 0
2 8 -12 17 18 -19 0
2 8 -12 17 -18 19 0
2 8 -12 -17 18 19 0
2 8 -12 -17 -18 -19 0
2 -8 12 17 18 -19 0
2 -8 12 17 -18 19 0
2 -8 12 -17 18 19 0
2 -8 12 -17 -18 -19 0
2 -8 -12 17 18 19 0
2 -8 -12 17 -18 -19 0
2 -8 -12 -17 18 -19 0
2 -8 -12 -17 -18 19 0
-2 8 12 17 18 -19 0
-2 8 12 17 -18 19 0
-2 8 12 -17 18 19 0
-2 8 12 -17 -18 -19 0
-2 8 -12 17 18 19 0
-2 8 -12 17 -18 -19 0
-2 8 -12 -17 18 -19 0
-2 8 -12 -17 -18 19 0
-2 -8 12 17 18 19 0
-2 -8 12 17 -18 -19 0
-2 -8 12 -17 18 -19 0
-2 -8 12 -17 -18 19 0
-2 -8 -12 17 18 -19 0
-2 -8 -12 17 -18 19 0
-2 -8 -12 -17 18 19 0
-2 -8 -12 -17 -18 -19 0
3 9 13 20 21 22 0
3 9 13 20 -21 -22 0
3 9 13 -20 21 -22 0
3 9 13 -20 -21 22 0
3 9 -13 20 21 -22 0
3 9 -13 20 -21 22 0
3 9 -13 -20 21 22 0
3 9 -13 -20 -21 -22 0
3 -9 13 20 21 -22 0
3 -9 13 20 -21 22 0
3 -9 13 -20 21 22 0
3 -9 13 -20 -21 -22 0
3 -9 -13 20 21 22 0
3 -9 -13 20 -21 -22 0
3 -9 -13 -20 21 -22 0
3 -9 -13 -20 -21 22 0
-3 9 13 20 21 -22 0
-3 9 13 20 -21 22 0
-3 9 13 -20 21 22 0
-3 9 13 -20 -21 -22 0
-3 9 -13 20 21 22 0
-3 9 -13 20 -21 -22 0
-3 9 -13 -20 21 -22 0
-3 9 -13 -20 -21 22 0
-3 -9 13 20 21 22 0
-3 -9 13 20 -21 -22 0
-3 -9 13 -20 21 -22 0
-3 -9 13 -20 -21 22 0
-3 -9 -13 20 21 -22 0
-3 -9 -13 20 -21 22 0
-3 -9 -13 -20 21 22 0
-3 -9 -13 -20 -21 -22 0
4 14 17 20 23 24 0
4 14 17 20 -23 -24 0
4 14 17 -20 23 -24 0
4 14 17 -20 -23 24 0
4 14 -17 20 23 -24 0
4 14 -17 20 -23 24 0
4 14 -17 -20 23 24 0
4 14 -17 -20 -23 -24 0
4 -14 17 20 23 -24 0
4 -14 17 20 -23 24 0
4 -14 17 -20 23 24 0
4 -14 17 -20 -23 -24 0
4 -14 -17 20 23 24 0
4 -14 -17 20 -23 -24 0
4 -14 -17 -20 23 -24 0
4 -14 -17 -20 -23 24 0
-4 14 17 20 23 -24 0
-4 14 17 20 -23 24 0
-4 14 17 -20 23 24 0
-4 14 17 -20 -23 -24 0
-4 14 -17 20 23 24 0
-4 14 -17 20 -23 -24 0
-4 14 -17 -20 23 -24 0
-4 14 -17 -20 -23 24 0
-4 -14 17 20 23 24 0
-4 -14 17 20 -23 -24 0
-4 -14 17 -20 23 -24 0
-4 -14 17 -20 -23 24 0
-4 -14 -17 20 23 -24 0
-4 -14 -17 20 -23 24 0
-4 -14 -17 -20 23 24 0
-4 -14 -17 -20 -23 -24 0
5 10 15 18 21 -23 0
5 10 15 18 -21 23 0
5 10 15 -18 21 23 0
5 10 15 -18 -21 -23 0
5 10 -15 18 21 23 0
5 10 -15 18 -21 -23 0
5 10 -15 -18 21 -23 0
5 10 -15 -18 -21 23 0
5 -10 15 18 21 23 0
5 -10 15 18 -21 -23 0
5 -10 15 -18 21 -23 0
5 -10 15 -18 -21 23 0
5 -10 -15 18 21 -23 0
5 -10 -15 18 -21 23 0
5 -10 -15 -18 21 23 0
5 -10 -15 -18 -21 -23 0
-5 10 15 18 21 23 0
-5 10 15 18 -21 -23 0
-5 10 15 -18 21 -23 0
-5 10 15 -18 -21 23 0
-5 10 -15 18 21 -23 0
-5 10 -15 18 -21 23 0
-5 10 -15 -18 21 23 0
-5 10 -15 -18 -21 -23 0
-5 -10 15 18 21 -23 0
-5 -10 15 18 -21 23 0
-5 -10 15 -18 21 23 0
-5 -10 15 -18 -21 -23 0
-5 -10 -15 18 21 23 0
-5 -10 -15 18 -21 -23 0
-5 -10 -15 -18 21 -23 0
-5 -10 -15 -18 -21 23 0
6 11 16 19 22 -24 0
6 11 16 19 -22 24 0
6 11 16 -19 22 24 0
6 11 16 -19 -22 -24 0
6 11 -16 19 22 24 0
6 11 -16 19 -22 -24 0
6 11 -16 -19 22 -24 0
6 11 -16 -19 -22 24 0
6 -11 16 19 22 24 0
6 -11 16 19 -22 -24 0
6 -11 16 -19 22 -24 0
6 -11 16 -19 -22 24 0
6 -11 -16 19 22 -24 0
6 -11 -16 19 -22 24 0
6 -11 -16 -19 22 24 0
6 -11 -16 -19 -22 -24 0
-6 11 16 19 22 24 0
-6 11 16 19 -22 -24 0
-6 11 16 -19 22 -24 0
-6 11 16 -19 -22 24 0
-6 11 -16 19 22 -24 0
-6 11 -16 19 -22 24 0
-6 11 -16 -19 22 24 0
-6 11 -16 -19 -22 -24 0
-6 -11 16 19 22 -24 0
-6 -11 16 19 -22 24 0
-6 -11 16 -19 22 24 0
-6 -11 16 -19 -22 -24 0
-6 -11 -16 19 22 24 0
-6 -11 -16 19 -22 -24 0
-6 -11 -16 -19 22 -24 0
-6 -11 -16 -19 -22 24 0
